c User generated cnf file
p cnf 11 19
4 -7 3 0 
8 -4 3 0 
2 5 -3 0 
10 8 -9 0 
8 -8 3 0 
3 2 -7 0 
1 -9 5 0 
10 -7 2 0 
1 3 -5 0 
9 5 -3 0 
3 8 -5 0 
2 8 -8 0 
8 3 -7 0 
8 -5 5 0 
3 7 -7 0 
8 8 -10 0 
1 11 -6 0 
1 -5 9 0 
1 10 -2 0 
